language Essence 1.3

letting blksize_delta be
        function(1 --> 1, 2 --> 1, 3 --> 1, 4 --> 1, 5 --> 1, 6 --> 1, 7 --> 1, 8 --> 1, 9 --> 1, 10 --> 1, 11 --> 1,
                 12 --> 1, 13 --> 1, 14 --> 1, 15 --> 1, 16 --> 1, 17 --> 1, 18 --> 1, 19 --> 1, 20 --> 1, 21 --> 1,
                 22 --> 1)
letting maxcars be
        function(1 --> 4, 2 --> 4, 3 --> 5, 4 --> 4, 5 --> 5, 6 --> 5, 7 --> 5, 8 --> 4, 9 --> 5, 10 --> 5, 11 --> 5,
                 12 --> 4, 13 --> 4, 14 --> 5, 15 --> 5, 16 --> 5, 17 --> 5, 18 --> 5, 19 --> 5, 20 --> 5, 21 --> 5,
                 22 --> 5)
letting n_cars be 176
letting n_classes be 2
letting n_options be 22
letting quantity be function(1 --> 88, 2 --> 88)
letting usage be
        relation((1, 1), (1, 2), (1, 4), (1, 6), (1, 7), (1, 8), (1, 10), (1, 11), (1, 12), (1, 13), (1, 14), (1, 15),
                 (1, 16), (1, 17), (1, 18), (1, 19), (1, 20), (2, 3), (2, 5), (2, 9), (2, 21), (2, 22))
$ Visualisation for usage
$  1  1
$  1  2
$  1  4
$  1  6
$  1  7
$  1  8
$  1 10
$  1 11
$  1 12
$  1 13
$  1 14
$  1 15
$  1 16
$  1 17
$  1 18
$  1 19
$  1 20
$  2  3
$  2  5
$  2  9
$  2 21
$  2 22

